CapLotSizing_PM/src/Instancias/TCHSHT/6i18p2m/NBA08.OUT
 CG ITER, OVMR, OVMRUB =           1  175000.0312500  175000.0000000
 CG ITER, OVMR, OVMRUB =           2   92090.0781250  175000.0000000
 CG ITER, OVMR, OVMRUB =           3   41195.2578125  175000.0000000
 CG ITER, OVMR, OVMRUB =           4   29353.3125000   46346.8359375
 CG ITER, OVMR, OVMRUB =           5   25280.1914062   46346.8359375
 CG ITER, OVMR, OVMRUB =           6   26771.4238281   46346.8359375
 CG ITER, OVMR, OVMRUB =           7   26982.9902344   46346.8359375
 CG ITER, OVMR, OVMRUB =           8   27648.3476562   41759.1953125
 CG ITER, OVMR, OVMRUB =           9   28210.1953125   41759.1953125
 CG ITER, OVMR, OVMRUB =          10   28681.4042969   41759.1953125
 CG ITER, OVMR, OVMRUB =          11   29069.7539062   41759.1953125
 CG ITER, OVMR, OVMRUB =          12   29497.6074219   41759.1953125
 CG ITER, OVMR, OVMRUB =          13   29790.6582031   41759.1953125
 CG ITER, OVMR, OVMRUB =          14   30098.6484375   41759.1953125
 CG ITER, OVMR, OVMRUB =          15   30378.1523438   41390.4882812
 CG ITER, OVMR, OVMRUB =          16   30614.1289062   41390.4882812
 CG ITER, OVMR, OVMRUB =          17   30840.3554688   41390.4882812
 CG ITER, OVMR, OVMRUB =          18   31016.0683594   41390.4882812
 CG ITER, OVMR, OVMRUB =          19   30913.7519531   41390.4882812
 CG ITER, OVMR, OVMRUB =          20   30880.6523438   41390.4882812
 CG ITER, OVMR, OVMRUB =          21   31084.0410156   37754.3710938
 CG ITER, OVMR, OVMRUB =          22   31257.2675781   37475.4023438
 CG ITER, OVMR, OVMRUB =          23   31447.5468750   37059.8671875
 CG ITER, OVMR, OVMRUB =          24   31579.3847656   36353.2890625
 CG ITER, OVMR, OVMRUB =          25   31700.0449219   36353.2890625
 CG ITER, OVMR, OVMRUB =          26   31805.6093750   36353.2890625
 CG ITER, OVMR, OVMRUB =          27   31917.7226562   36353.2890625
 CG ITER, OVMR, OVMRUB =          28   31864.5664062   36353.2890625
 CG ITER, OVMR, OVMRUB =          29   31940.6875000   36353.2890625
 CG ITER, OVMR, OVMRUB =          30   31993.9140625   36353.2890625
 CG ITER, OVMR, OVMRUB =          31   32051.1816406   36353.2890625
 CG ITER, OVMR, OVMRUB =          32   32108.1367188   36353.2890625
 CG ITER, OVMR, OVMRUB =          33   32074.3847656   36353.2890625
 CG ITER, OVMR, OVMRUB =          34   32100.9628906   36353.2890625
 CG ITER, OVMR, OVMRUB =          35   32129.5234375   36353.2890625
 CG ITER, OVMR, OVMRUB =          36   32156.3808594   36353.2890625
 CG ITER, OVMR, OVMRUB =          37   31642.3906250   36353.2890625
 CG ITER, OVMR, OVMRUB =          38   31608.2617188   36353.2890625
 CG ITER, OVMR, OVMRUB =          39   31592.6386719   36353.2890625
 CG ITER, OVMR, OVMRUB =          40   31520.2500000   36353.2890625
 CG ITER, OVMR, OVMRUB =          41   31508.5214844   36353.2890625
 CG ITER, OVMR, OVMRUB =          42   31502.7890625   36353.2890625
 CG ITER, OVMR, OVMRUB =          43   31507.4316406   36353.2890625
 CG ITER, OVMR, OVMRUB =          44   31521.1132812   36353.2890625
 CG ITER, OVMR, OVMRUB =          45   31492.0546875   36353.2890625
 CG ITER, OVMR, OVMRUB =          46   31493.7070312   36353.2890625
 CG ITER, OVMR, OVMRUB =          47   31493.4218750   36353.2890625
 CG ITER, OVMR, OVMRUB =          48   31493.4218750   36353.2890625
OVLB =   31493.4218750 OVLUB =   36353.2890625 TIME =       5.2199998
